Route #1: 36 37 38 62 15 9
Route #2: 6 4 5 61 28 22 16 34 40 30 43 33 41 66 59
Route #3: 24 18 26 46 45 35 27 63 49 25 51 31 47 8
Route #4: 
Route #5: 50 64 7 48 17 11 29 13 60 3 65 10 57 20 21 54 56 55 19 14 58 44 23 52 39 32
Route #6: 42 53 2 12 1
Route #7: 
Route #8: 
Route #9: 
cost 1770.1625955337095
